9947
1 1 1 1 1 1 1 0 1 1 0 1 1 0 1 1 1 0 1 1
4 18 8 6 9 19 0 6 8 4 16 0 0 9 2 5 2 9 1 0 3 0 5 15 14 12 8 19 6 19 12 11 18 4 6 11 3 2 4 4 1 11 6 15 3 1 1 4 0 5 3 0 2 9 14 5 18 14 18 15 15 11 9 18 6 4 16 11 8 8 16 6 5 11 6 16 14 11 6 19